p cnf 959 2462
51 -694 -695 0
-51 694 0
-51 695 0
52 -51 -696 0
-52 51 0
-52 696 0
53 -697 -4 0
-53 697 0
-53 4 0
54 -53 -6 0
-54 53 0
-54 6 0
55 -698 -699 0
-55 698 0
-55 699 0
56 -700 -701 0
-56 700 0
-56 701 0
57 -56 -702 0
-57 56 0
-57 702 0
58 -703 -55 0
-58 703 0
-58 55 0
59 -704 -705 0
-59 704 0
-59 705 0
60 -59 -706 0
-60 59 0
-60 706 0
61 -707 -58 0
-61 707 0
-61 58 0
62 -708 -13 0
-62 708 0
-62 13 0
63 -62 -709 0
-63 62 0
-63 709 0
64 -710 -61 0
-64 710 0
-64 61 0
65 -17 -711 0
-65 17 0
-65 711 0
66 -65 -704 0
-66 65 0
-66 704 0
67 -712 -64 0
-67 712 0
-67 64 0
68 -18 -711 0
-68 18 0
-68 711 0
69 -68 -713 0
-69 68 0
-69 713 0
70 -714 -67 0
-70 714 0
-70 67 0
71 -20 -10 0
-71 20 0
-71 10 0
72 -71 -21 0
-72 71 0
-72 21 0
73 -715 -70 0
-73 715 0
-73 70 0
74 -716 -7 0
-74 716 0
-74 7 0
75 -74 -23 0
-75 74 0
-75 23 0
76 -717 -73 0
-76 717 0
-76 73 0
77 -718 -719 0
-77 718 0
-77 719 0
78 -77 -26 0
-78 77 0
-78 26 0
79 -720 -76 0
-79 720 0
-79 76 0
80 -10 -2 0
-80 10 0
-80 2 0
81 -80 -27 0
-81 80 0
-81 27 0
82 -721 -79 0
-82 721 0
-82 79 0
83 -28 -25 0
-83 28 0
-83 25 0
84 -83 -21 0
-84 83 0
-84 21 0
85 -722 -82 0
-85 722 0
-85 82 0
86 -723 -29 0
-86 723 0
-86 29 0
87 -86 -20 0
-87 86 0
-87 20 0
88 -724 -85 0
-88 724 0
-88 85 0
89 -27 -20 0
-89 27 0
-89 20 0
90 -89 -15 0
-90 89 0
-90 15 0
91 -725 -88 0
-91 725 0
-91 88 0
92 -31 -2 0
-92 31 0
-92 2 0
93 -92 -726 0
-93 92 0
-93 726 0
94 -727 -91 0
-94 727 0
-94 91 0
95 -728 -729 0
-95 728 0
-95 729 0
96 -95 -697 0
-96 95 0
-96 697 0
97 -730 -94 0
-97 730 0
-97 94 0
98 -36 -35 0
-98 36 0
-98 35 0
99 -98 -731 0
-99 98 0
-99 731 0
100 -732 -97 0
-100 732 0
-100 97 0
101 -18 -700 0
-101 18 0
-101 700 0
102 -101 -733 0
-102 101 0
-102 733 0
103 -734 -100 0
-103 734 0
-103 100 0
104 -38 -735 0
-104 38 0
-104 735 0
105 -104 -736 0
-105 104 0
-105 736 0
106 -737 -103 0
-106 737 0
-106 103 0
107 -738 -705 0
-107 738 0
-107 705 0
108 -107 -731 0
-108 107 0
-108 731 0
109 -739 -106 0
-109 739 0
-109 106 0
110 -39 -28 0
-110 39 0
-110 28 0
111 -110 -26 0
-111 110 0
-111 26 0
112 -740 -109 0
-112 740 0
-112 109 0
113 -40 -25 0
-113 40 0
-113 25 0
114 -113 -3 0
-114 113 0
-114 3 0
115 -741 -112 0
-115 741 0
-115 112 0
116 -716 -708 0
-116 716 0
-116 708 0
117 -116 -742 0
-117 116 0
-117 742 0
118 -743 -115 0
-118 743 0
-118 115 0
119 -744 -745 0
-119 744 0
-119 745 0
120 -119 -746 0
-120 119 0
-120 746 0
121 -747 -118 0
-121 747 0
-121 118 0
122 -748 -10 0
-122 748 0
-122 10 0
123 -122 -12 0
-123 122 0
-123 12 0
124 -749 -121 0
-124 749 0
-124 121 0
125 -21 -3 0
-125 21 0
-125 3 0
126 -125 -42 0
-126 125 0
-126 42 0
127 -750 -124 0
-127 750 0
-127 124 0
128 -29 -13 0
-128 29 0
-128 13 0
129 -128 -704 0
-129 128 0
-129 704 0
130 -751 -127 0
-130 751 0
-130 127 0
131 -19 -14 0
-131 19 0
-131 14 0
132 -131 -37 0
-132 131 0
-132 37 0
133 -752 -130 0
-133 752 0
-133 130 0
134 -43 -5 0
-134 43 0
-134 5 0
135 -134 -36 0
-135 134 0
-135 36 0
136 -753 -133 0
-136 753 0
-136 133 0
137 -44 -7 0
-137 44 0
-137 7 0
138 -137 -34 0
-138 137 0
-138 34 0
139 -754 -136 0
-139 754 0
-139 136 0
140 -728 -23 0
-140 728 0
-140 23 0
141 -140 -755 0
-141 140 0
-141 755 0
142 -756 -139 0
-142 756 0
-142 139 0
143 -45 -38 0
-143 45 0
-143 38 0
144 -143 -757 0
-144 143 0
-144 757 0
145 -758 -142 0
-145 758 0
-145 142 0
146 -32 -723 0
-146 32 0
-146 723 0
147 -146 -759 0
-147 146 0
-147 759 0
148 -760 -145 0
-148 760 0
-148 145 0
149 -759 -723 0
-149 759 0
-149 723 0
150 -149 -15 0
-150 149 0
-150 15 0
151 -761 -148 0
-151 761 0
-151 148 0
152 -711 -702 0
-152 711 0
-152 702 0
153 -152 -3 0
-153 152 0
-153 3 0
154 -762 -151 0
-154 762 0
-154 151 0
155 -755 -32 0
-155 755 0
-155 32 0
156 -155 -6 0
-156 155 0
-156 6 0
157 -763 -154 0
-157 763 0
-157 154 0
158 -46 -43 0
-158 46 0
-158 43 0
159 -158 -3 0
-159 158 0
-159 3 0
160 -764 -157 0
-160 764 0
-160 157 0
161 -45 -25 0
-161 45 0
-161 25 0
162 -161 -697 0
-162 161 0
-162 697 0
163 -765 -160 0
-163 765 0
-163 160 0
164 -757 -23 0
-164 757 0
-164 23 0
165 -164 -8 0
-165 164 0
-165 8 0
166 -766 -163 0
-166 766 0
-166 163 0
167 -748 -14 0
-167 748 0
-167 14 0
168 -167 -8 0
-168 167 0
-168 8 0
169 -767 -166 0
-169 767 0
-169 166 0
170 -59 -26 0
-170 59 0
-170 26 0
171 -768 -169 0
-171 768 0
-171 169 0
172 -8 -1 0
-172 8 0
-172 1 0
173 -172 -12 0
-173 172 0
-173 12 0
174 -769 -171 0
-174 769 0
-174 171 0
175 -28 -7 0
-175 28 0
-175 7 0
176 -175 -704 0
-176 175 0
-176 704 0
177 -770 -174 0
-177 770 0
-177 174 0
178 -759 -25 0
-178 759 0
-178 25 0
179 -178 -709 0
-179 178 0
-179 709 0
180 -771 -177 0
-180 771 0
-180 177 0
181 -32 -16 0
-181 32 0
-181 16 0
182 -181 -772 0
-182 181 0
-182 772 0
183 -773 -180 0
-183 773 0
-183 180 0
184 -45 -13 0
-184 45 0
-184 13 0
185 -184 -9 0
-185 184 0
-185 9 0
186 -774 -183 0
-186 774 0
-186 183 0
187 -47 -34 0
-187 47 0
-187 34 0
188 -187 -713 0
-188 187 0
-188 713 0
189 -775 -186 0
-189 775 0
-189 186 0
190 -48 -713 0
-190 48 0
-190 713 0
191 -190 -776 0
-191 190 0
-191 776 0
192 -777 -189 0
-192 777 0
-192 189 0
193 -778 -17 0
-193 778 0
-193 17 0
194 -193 -705 0
-194 193 0
-194 705 0
195 -779 -192 0
-195 779 0
-195 192 0
196 -738 -21 0
-196 738 0
-196 21 0
197 -196 -776 0
-197 196 0
-197 776 0
198 -780 -195 0
-198 780 0
-198 195 0
199 -22 -696 0
-199 22 0
-199 696 0
200 -199 -12 0
-200 199 0
-200 12 0
201 -781 -198 0
-201 781 0
-201 198 0
202 -748 -13 0
-202 748 0
-202 13 0
203 -202 -42 0
-203 202 0
-203 42 0
204 -782 -201 0
-204 782 0
-204 201 0
205 -33 -738 0
-205 33 0
-205 738 0
206 -205 -706 0
-206 205 0
-206 706 0
207 -783 -204 0
-207 783 0
-207 204 0
208 -33 -719 0
-208 33 0
-208 719 0
209 -208 -49 0
-209 208 0
-209 49 0
210 -784 -207 0
-210 784 0
-210 207 0
211 -785 -738 0
-211 785 0
-211 738 0
212 -211 -19 0
-212 211 0
-212 19 0
213 -786 -210 0
-213 786 0
-213 210 0
214 -787 -35 0
-214 787 0
-214 35 0
215 -214 -47 0
-215 214 0
-215 47 0
216 -788 -213 0
-216 788 0
-216 213 0
217 -742 -8 0
-217 742 0
-217 8 0
218 -217 -15 0
-218 217 0
-218 15 0
219 -789 -216 0
-219 789 0
-219 216 0
220 -790 -744 0
-220 790 0
-220 744 0
221 -220 -37 0
-221 220 0
-221 37 0
222 -791 -219 0
-222 791 0
-222 219 0
223 -31 -14 0
-223 31 0
-223 14 0
224 -223 -3 0
-224 223 0
-224 3 0
225 -792 -222 0
-225 792 0
-225 222 0
226 -39 -694 0
-226 39 0
-226 694 0
227 -226 -49 0
-227 226 0
-227 49 0
228 -793 -225 0
-228 793 0
-228 225 0
229 -5 -2 0
-229 5 0
-229 2 0
230 -229 -37 0
-230 229 0
-230 37 0
231 -794 -228 0
-231 794 0
-231 228 0
232 -708 -701 0
-232 708 0
-232 701 0
233 -232 -742 0
-233 232 0
-233 742 0
234 -795 -231 0
-234 795 0
-234 231 0
235 -742 -10 0
-235 742 0
-235 10 0
236 -235 -50 0
-236 235 0
-236 50 0
237 -796 -234 0
-237 796 0
-237 234 0
238 -46 -29 0
-238 46 0
-238 29 0
239 -238 -32 0
-239 238 0
-239 32 0
240 -797 -237 0
-240 797 0
-240 237 0
241 -798 -44 0
-241 798 0
-241 44 0
242 -241 -733 0
-242 241 0
-242 733 0
243 -799 -240 0
-243 799 0
-243 240 0
244 -8 -800 0
-244 8 0
-244 800 0
245 -244 -50 0
-245 244 0
-245 50 0
246 -801 -243 0
-246 801 0
-246 243 0
247 -745 -735 0
-247 745 0
-247 735 0
248 -247 -27 0
-248 247 0
-248 27 0
249 -802 -246 0
-249 802 0
-249 246 0
250 -40 -38 0
-250 40 0
-250 38 0
251 -250 -3 0
-251 250 0
-251 3 0
252 -803 -249 0
-252 803 0
-252 249 0
253 -39 -711 0
-253 39 0
-253 711 0
254 -253 -776 0
-254 253 0
-254 776 0
255 -804 -252 0
-255 804 0
-255 252 0
256 -736 -21 0
-256 736 0
-256 21 0
257 -256 -50 0
-257 256 0
-257 50 0
258 -805 -255 0
-258 805 0
-258 255 0
259 -4 -2 0
-259 4 0
-259 2 0
260 -259 -8 0
-260 259 0
-260 8 0
261 -806 -258 0
-261 806 0
-261 258 0
262 -798 -807 0
-262 798 0
-262 807 0
263 -262 -731 0
-263 262 0
-263 731 0
264 -808 -261 0
-264 808 0
-264 261 0
265 -36 -745 0
-265 36 0
-265 745 0
266 -265 -42 0
-266 265 0
-266 42 0
267 -809 -264 0
-267 809 0
-267 264 0
268 -42 -39 0
-268 42 0
-268 39 0
269 -268 -810 0
-269 268 0
-269 810 0
270 -811 -267 0
-270 811 0
-270 267 0
271 -30 -738 0
-271 30 0
-271 738 0
272 -271 -36 0
-272 271 0
-272 36 0
273 -812 -270 0
-273 812 0
-273 270 0
274 -44 -700 0
-274 44 0
-274 700 0
275 -274 -810 0
-275 274 0
-275 810 0
276 -813 -273 0
-276 813 0
-276 273 0
277 -26 -4 0
-277 26 0
-277 4 0
278 -277 -50 0
-278 277 0
-278 50 0
279 -814 -276 0
-279 814 0
-279 276 0
280 -785 -742 0
-280 785 0
-280 742 0
281 -280 -40 0
-281 280 0
-281 40 0
282 -815 -279 0
-282 815 0
-282 279 0
283 -729 -11 0
-283 729 0
-283 11 0
284 -283 -718 0
-284 283 0
-284 718 0
285 -816 -282 0
-285 816 0
-285 282 0
286 -728 -2 0
-286 728 0
-286 2 0
287 -286 -21 0
-287 286 0
-287 21 0
288 -817 -285 0
-288 817 0
-288 285 0
289 -30 -11 0
-289 30 0
-289 11 0
290 -289 -32 0
-290 289 0
-290 32 0
291 -818 -288 0
-291 818 0
-291 288 0
292 -723 -705 0
-292 723 0
-292 705 0
293 -292 -726 0
-293 292 0
-293 726 0
294 -819 -291 0
-294 819 0
-294 291 0
295 -24 -701 0
-295 24 0
-295 701 0
296 -295 -759 0
-296 295 0
-296 759 0
297 -820 -294 0
-297 820 0
-297 294 0
298 -748 -11 0
-298 748 0
-298 11 0
299 -298 -4 0
-299 298 0
-299 4 0
300 -821 -297 0
-300 821 0
-300 297 0
301 -716 -8 0
-301 716 0
-301 8 0
302 -301 -731 0
-302 301 0
-302 731 0
303 -822 -300 0
-303 822 0
-303 300 0
304 -34 -731 0
-304 34 0
-304 731 0
305 -304 -3 0
-305 304 0
-305 3 0
306 -823 -303 0
-306 823 0
-306 303 0
307 -22 -1 0
-307 22 0
-307 1 0
308 -307 -700 0
-308 307 0
-308 700 0
309 -824 -306 0
-309 824 0
-309 306 0
310 -718 -19 0
-310 718 0
-310 19 0
311 -310 -746 0
-311 310 0
-311 746 0
312 -825 -309 0
-312 825 0
-312 309 0
313 -798 -718 0
-313 798 0
-313 718 0
314 -313 -30 0
-314 313 0
-314 30 0
315 -826 -312 0
-315 826 0
-315 312 0
316 -46 -2 0
-316 46 0
-316 2 0
317 -316 -787 0
-317 316 0
-317 787 0
318 -827 -315 0
-318 827 0
-318 315 0
319 -828 -705 0
-319 828 0
-319 705 0
320 -319 -800 0
-320 319 0
-320 800 0
321 -829 -318 0
-321 829 0
-321 318 0
322 -785 -22 0
-322 785 0
-322 22 0
323 -322 -39 0
-323 322 0
-323 39 0
324 -830 -321 0
-324 830 0
-324 321 0
325 -38 -718 0
-325 38 0
-325 718 0
326 -325 -20 0
-326 325 0
-326 20 0
327 -831 -324 0
-327 831 0
-327 324 0
328 -738 -11 0
-328 738 0
-328 11 0
329 -328 -787 0
-329 328 0
-329 787 0
330 -832 -327 0
-330 832 0
-330 327 0
331 -833 -834 0
-331 833 0
-331 834 0
332 -331 -810 0
-332 331 0
-332 810 0
333 -835 -330 0
-333 835 0
-333 330 0
334 -9 -8 0
-334 9 0
-334 8 0
335 -334 -709 0
-335 334 0
-335 709 0
336 -836 -333 0
-336 836 0
-336 333 0
337 -48 -13 0
-337 48 0
-337 13 0
338 -337 -3 0
-338 337 0
-338 3 0
339 -837 -336 0
-339 837 0
-339 336 0
340 -46 -708 0
-340 46 0
-340 708 0
341 -340 -726 0
-341 340 0
-341 726 0
342 -838 -339 0
-342 838 0
-342 339 0
343 -47 -1 0
-343 47 0
-343 1 0
344 -343 -733 0
-344 343 0
-344 733 0
345 -839 -342 0
-345 839 0
-345 342 0
346 -833 -25 0
-346 833 0
-346 25 0
347 -346 -5 0
-347 346 0
-347 5 0
348 -840 -345 0
-348 840 0
-348 345 0
349 -38 -729 0
-349 38 0
-349 729 0
350 -349 -742 0
-350 349 0
-350 742 0
351 -841 -348 0
-351 841 0
-351 348 0
352 -736 -704 0
-352 736 0
-352 704 0
353 -352 -718 0
-353 352 0
-353 718 0
354 -842 -351 0
-354 842 0
-354 351 0
355 -787 -14 0
-355 787 0
-355 14 0
356 -355 -706 0
-356 355 0
-356 706 0
357 -843 -354 0
-357 843 0
-357 354 0
358 -30 -828 0
-358 30 0
-358 828 0
359 -358 -12 0
-359 358 0
-359 12 0
360 -844 -357 0
-360 844 0
-360 357 0
361 -718 -716 0
-361 718 0
-361 716 0
362 -361 -742 0
-362 361 0
-362 742 0
363 -845 -360 0
-363 845 0
-363 360 0
364 -785 -16 0
-364 785 0
-364 16 0
365 -364 -694 0
-365 364 0
-365 694 0
366 -846 -363 0
-366 846 0
-366 363 0
367 -17 -4 0
-367 17 0
-367 4 0
368 -367 -759 0
-368 367 0
-368 759 0
369 -847 -366 0
-369 847 0
-369 366 0
370 -798 -45 0
-370 798 0
-370 45 0
371 -370 -697 0
-371 370 0
-371 697 0
372 -848 -369 0
-372 848 0
-372 369 0
373 -729 -828 0
-373 729 0
-373 828 0
374 -373 -709 0
-374 373 0
-374 709 0
375 -849 -372 0
-375 849 0
-375 372 0
376 -785 -5 0
-376 785 0
-376 5 0
377 -376 -700 0
-377 376 0
-377 700 0
378 -850 -375 0
-378 850 0
-378 375 0
379 -46 -44 0
-379 46 0
-379 44 0
380 -379 -6 0
-380 379 0
-380 6 0
381 -851 -378 0
-381 851 0
-381 378 0
382 -205 -11 0
-382 205 0
-382 11 0
383 -852 -381 0
-383 852 0
-383 381 0
384 -45 -733 0
-384 45 0
-384 733 0
385 -384 -810 0
-385 384 0
-385 810 0
386 -853 -383 0
-386 853 0
-386 383 0
387 -834 -728 0
-387 834 0
-387 728 0
388 -387 -854 0
-388 387 0
-388 854 0
389 -855 -386 0
-389 855 0
-389 386 0
390 -25 -704 0
-390 25 0
-390 704 0
391 -390 -8 0
-391 390 0
-391 8 0
392 -856 -389 0
-392 856 0
-392 389 0
393 -738 -1 0
-393 738 0
-393 1 0
394 -393 -723 0
-394 393 0
-394 723 0
395 -857 -392 0
-395 857 0
-395 392 0
396 -785 -9 0
-396 785 0
-396 9 0
397 -396 -746 0
-397 396 0
-397 746 0
398 -858 -395 0
-398 858 0
-398 395 0
399 -49 -798 0
-399 49 0
-399 798 0
400 -399 -21 0
-400 399 0
-400 21 0
401 -859 -398 0
-401 859 0
-401 398 0
402 -833 -800 0
-402 833 0
-402 800 0
403 -402 -746 0
-403 402 0
-403 746 0
404 -860 -401 0
-404 860 0
-404 401 0
405 -787 -790 0
-405 787 0
-405 790 0
406 -405 -5 0
-406 405 0
-406 5 0
407 -861 -404 0
-407 861 0
-407 404 0
408 -828 -16 0
-408 828 0
-408 16 0
409 -408 -772 0
-409 408 0
-409 772 0
410 -862 -407 0
-410 862 0
-410 407 0
411 -778 -18 0
-411 778 0
-411 18 0
412 -411 -787 0
-412 411 0
-412 787 0
413 -863 -410 0
-413 863 0
-413 410 0
414 -45 -738 0
-414 45 0
-414 738 0
415 -414 -731 0
-415 414 0
-415 731 0
416 -864 -413 0
-416 864 0
-416 413 0
417 -729 -745 0
-417 729 0
-417 745 0
418 -417 -8 0
-418 417 0
-418 8 0
419 -865 -416 0
-419 865 0
-419 416 0
420 -834 -742 0
-420 834 0
-420 742 0
421 -420 -41 0
-421 420 0
-421 41 0
422 -866 -419 0
-422 866 0
-422 419 0
423 -726 -31 0
-423 726 0
-423 31 0
424 -423 -47 0
-424 423 0
-424 47 0
425 -867 -422 0
-425 867 0
-425 422 0
426 -46 -41 0
-426 46 0
-426 41 0
427 -426 -776 0
-427 426 0
-427 776 0
428 -868 -425 0
-428 868 0
-428 425 0
429 -39 -37 0
-429 39 0
-429 37 0
430 -429 -15 0
-430 429 0
-430 15 0
431 -869 -428 0
-431 869 0
-431 428 0
432 -719 -748 0
-432 719 0
-432 748 0
433 -432 -755 0
-433 432 0
-433 755 0
434 -870 -431 0
-434 870 0
-434 431 0
435 -43 -708 0
-435 43 0
-435 708 0
436 -435 -776 0
-436 435 0
-436 776 0
437 -871 -434 0
-437 871 0
-437 434 0
438 -833 -718 0
-438 833 0
-438 718 0
439 -438 -709 0
-439 438 0
-439 709 0
440 -872 -437 0
-440 872 0
-440 437 0
441 -37 -735 0
-441 37 0
-441 735 0
442 -441 -3 0
-442 441 0
-442 3 0
443 -873 -440 0
-443 873 0
-443 440 0
444 -18 -2 0
-444 18 0
-444 2 0
445 -444 -833 0
-445 444 0
-445 833 0
446 -874 -443 0
-446 874 0
-446 443 0
447 -31 -20 0
-447 31 0
-447 20 0
448 -447 -8 0
-448 447 0
-448 8 0
449 -875 -446 0
-449 875 0
-449 446 0
450 -31 -716 0
-450 31 0
-450 716 0
451 -450 -3 0
-451 450 0
-451 3 0
452 -876 -449 0
-452 876 0
-452 449 0
453 -164 -31 0
-453 164 0
-453 31 0
454 -877 -452 0
-454 877 0
-454 452 0
455 -48 -32 0
-455 48 0
-455 32 0
456 -455 -26 0
-456 455 0
-456 26 0
457 -878 -454 0
-457 878 0
-457 454 0
458 -42 -22 0
-458 42 0
-458 22 0
459 -458 -15 0
-459 458 0
-459 15 0
460 -879 -457 0
-460 879 0
-460 457 0
461 -757 -701 0
-461 757 0
-461 701 0
462 -461 -742 0
-462 461 0
-462 742 0
463 -880 -460 0
-463 880 0
-463 460 0
464 -298 -21 0
-464 298 0
-464 21 0
465 -881 -463 0
-465 881 0
-465 463 0
466 -37 -745 0
-466 37 0
-466 745 0
467 -466 -706 0
-467 466 0
-467 706 0
468 -882 -465 0
-468 882 0
-468 465 0
469 -833 -5 0
-469 833 0
-469 5 0
470 -469 -776 0
-470 469 0
-470 776 0
471 -883 -468 0
-471 883 0
-471 468 0
472 -828 -695 0
-472 828 0
-472 695 0
473 -472 -708 0
-473 472 0
-473 708 0
474 -884 -471 0
-474 884 0
-474 471 0
475 -733 -29 0
-475 733 0
-475 29 0
476 -475 -42 0
-476 475 0
-476 42 0
477 -885 -474 0
-477 885 0
-477 474 0
478 -757 -708 0
-478 757 0
-478 708 0
479 -478 -854 0
-479 478 0
-479 854 0
480 -886 -477 0
-480 886 0
-480 477 0
481 -364 -726 0
-481 364 0
-481 726 0
482 -887 -480 0
-482 887 0
-482 480 0
483 -48 -16 0
-483 48 0
-483 16 0
484 -483 -45 0
-484 483 0
-484 45 0
485 -888 -482 0
-485 888 0
-485 482 0
486 -735 -10 0
-486 735 0
-486 10 0
487 -486 -37 0
-487 486 0
-487 37 0
488 -889 -485 0
-488 889 0
-488 485 0
489 -32 -25 0
-489 32 0
-489 25 0
490 -489 -755 0
-490 489 0
-490 755 0
491 -890 -488 0
-491 890 0
-491 488 0
492 -736 -28 0
-492 736 0
-492 28 0
493 -492 -19 0
-493 492 0
-493 19 0
494 -891 -491 0
-494 891 0
-494 491 0
495 -43 -39 0
-495 43 0
-495 39 0
496 -495 -34 0
-496 495 0
-496 34 0
497 -892 -494 0
-497 892 0
-497 494 0
498 -43 -733 0
-498 43 0
-498 733 0
499 -498 -26 0
-499 498 0
-499 26 0
500 -893 -497 0
-500 893 0
-500 497 0
501 -757 -719 0
-501 757 0
-501 719 0
502 -501 -731 0
-502 501 0
-502 731 0
503 -894 -500 0
-503 894 0
-503 500 0
504 -733 -9 0
-504 733 0
-504 9 0
505 -504 -26 0
-505 504 0
-505 26 0
506 -895 -503 0
-506 895 0
-506 503 0
507 -834 -29 0
-507 834 0
-507 29 0
508 -507 -12 0
-508 507 0
-508 12 0
509 -896 -506 0
-509 896 0
-509 506 0
510 -16 -704 0
-510 16 0
-510 704 0
511 -510 -14 0
-511 510 0
-511 14 0
512 -897 -509 0
-512 897 0
-512 509 0
513 -798 -755 0
-513 798 0
-513 755 0
514 -513 -759 0
-514 513 0
-514 759 0
515 -898 -512 0
-515 898 0
-515 512 0
516 -44 -2 0
-516 44 0
-516 2 0
517 -516 -27 0
-517 516 0
-517 27 0
518 -899 -515 0
-518 899 0
-518 515 0
519 -790 -29 0
-519 790 0
-519 29 0
520 -519 -19 0
-520 519 0
-520 19 0
521 -900 -518 0
-521 900 0
-521 518 0
522 -798 -19 0
-522 798 0
-522 19 0
523 -522 -37 0
-523 522 0
-523 37 0
524 -901 -521 0
-524 901 0
-524 521 0
525 -38 -16 0
-525 38 0
-525 16 0
526 -525 -3 0
-526 525 0
-526 3 0
527 -902 -524 0
-527 902 0
-527 524 0
528 -11 -9 0
-528 11 0
-528 9 0
529 -528 -731 0
-529 528 0
-529 731 0
530 -903 -527 0
-530 903 0
-530 527 0
531 -43 -22 0
-531 43 0
-531 22 0
532 -531 -24 0
-532 531 0
-532 24 0
533 -904 -530 0
-533 904 0
-533 530 0
534 -39 -13 0
-534 39 0
-534 13 0
535 -534 -718 0
-535 534 0
-535 718 0
536 -905 -533 0
-536 905 0
-536 533 0
537 -44 -728 0
-537 44 0
-537 728 0
538 -537 -755 0
-538 537 0
-538 755 0
539 -906 -536 0
-539 906 0
-539 536 0
540 -708 -7 0
-540 708 0
-540 7 0
541 -540 -32 0
-541 540 0
-541 32 0
542 -907 -539 0
-542 907 0
-542 539 0
543 -229 -50 0
-543 229 0
-543 50 0
544 -908 -542 0
-544 908 0
-544 542 0
545 -726 -5 0
-545 726 0
-545 5 0
546 -545 -42 0
-546 545 0
-546 42 0
547 -909 -544 0
-547 909 0
-547 544 0
548 -704 -695 0
-548 704 0
-548 695 0
549 -548 -5 0
-549 548 0
-549 5 0
550 -910 -547 0
-550 910 0
-550 547 0
551 -738 -27 0
-551 738 0
-551 27 0
552 -551 -697 0
-552 551 0
-552 697 0
553 -911 -550 0
-553 911 0
-553 550 0
554 -30 -20 0
-554 30 0
-554 20 0
555 -554 -696 0
-555 554 0
-555 696 0
556 -912 -553 0
-556 912 0
-556 553 0
557 -833 -772 0
-557 833 0
-557 772 0
558 -557 -40 0
-558 557 0
-558 40 0
559 -913 -556 0
-559 913 0
-559 556 0
560 -719 -745 0
-560 719 0
-560 745 0
561 -560 -696 0
-561 560 0
-561 696 0
562 -914 -559 0
-562 914 0
-562 559 0
563 -49 -697 0
-563 49 0
-563 697 0
564 -563 -37 0
-564 563 0
-564 37 0
565 -915 -562 0
-565 915 0
-565 562 0
566 -44 -745 0
-566 44 0
-566 745 0
567 -566 -16 0
-567 566 0
-567 16 0
568 -916 -565 0
-568 916 0
-568 565 0
569 -48 -719 0
-569 48 0
-569 719 0
570 -569 -700 0
-570 569 0
-570 700 0
571 -917 -568 0
-571 917 0
-571 568 0
572 -43 -7 0
-572 43 0
-572 7 0
573 -572 -42 0
-573 572 0
-573 42 0
574 -918 -571 0
-574 918 0
-574 571 0
575 -21 -9 0
-575 21 0
-575 9 0
576 -575 -40 0
-576 575 0
-576 40 0
577 -919 -574 0
-577 919 0
-577 574 0
578 -30 -5 0
-578 30 0
-578 5 0
579 -578 -776 0
-579 578 0
-579 776 0
580 -920 -577 0
-580 920 0
-580 577 0
581 -736 -35 0
-581 736 0
-581 35 0
582 -581 -9 0
-582 581 0
-582 9 0
583 -921 -580 0
-583 921 0
-583 580 0
584 -47 -719 0
-584 47 0
-584 719 0
585 -584 -759 0
-585 584 0
-585 759 0
586 -922 -583 0
-586 922 0
-586 583 0
587 -23 -18 0
-587 23 0
-587 18 0
588 -587 -30 0
-588 587 0
-588 30 0
589 -923 -586 0
-589 923 0
-589 586 0
590 -778 -723 0
-590 778 0
-590 723 0
591 -590 -19 0
-591 590 0
-591 19 0
592 -924 -589 0
-592 924 0
-592 589 0
593 -23 -1 0
-593 23 0
-593 1 0
594 -593 -50 0
-594 593 0
-594 50 0
595 -925 -592 0
-595 925 0
-595 592 0
596 -744 -29 0
-596 744 0
-596 29 0
597 -596 -27 0
-597 596 0
-597 27 0
598 -926 -595 0
-598 926 0
-598 595 0
599 -927 -18 0
-599 927 0
-599 18 0
600 -599 -748 0
-600 599 0
-600 748 0
601 -928 -598 0
-601 928 0
-601 598 0
602 -748 -704 0
-602 748 0
-602 704 0
603 -602 -41 0
-603 602 0
-603 41 0
604 -929 -601 0
-604 929 0
-604 601 0
605 -735 -800 0
-605 735 0
-605 800 0
606 -605 -713 0
-606 605 0
-606 713 0
607 -930 -604 0
-607 930 0
-607 604 0
608 -48 -705 0
-608 48 0
-608 705 0
609 -608 -5 0
-609 608 0
-609 5 0
610 -931 -607 0
-610 931 0
-610 607 0
611 -22 -17 0
-611 22 0
-611 17 0
612 -611 -790 0
-612 611 0
-612 790 0
613 -932 -610 0
-613 932 0
-613 610 0
614 -728 -30 0
-614 728 0
-614 30 0
615 -614 -42 0
-615 614 0
-615 42 0
616 -933 -613 0
-616 933 0
-616 613 0
617 -45 -16 0
-617 45 0
-617 16 0
618 -617 -26 0
-618 617 0
-618 26 0
619 -934 -616 0
-619 934 0
-619 616 0
620 -723 -757 0
-620 723 0
-620 757 0
621 -620 -700 0
-621 620 0
-621 700 0
622 -935 -619 0
-622 935 0
-622 619 0
623 -44 -20 0
-623 44 0
-623 20 0
624 -623 -731 0
-624 623 0
-624 731 0
625 -936 -622 0
-625 936 0
-625 622 0
626 -833 -696 0
-626 833 0
-626 696 0
627 -626 -706 0
-627 626 0
-627 706 0
628 -937 -625 0
-628 937 0
-628 625 0
629 -25 -695 0
-629 25 0
-629 695 0
630 -629 -742 0
-630 629 0
-630 742 0
631 -938 -628 0
-631 938 0
-631 628 0
632 -755 -708 0
-632 755 0
-632 708 0
633 -632 -706 0
-633 632 0
-633 706 0
634 -939 -631 0
-634 939 0
-634 631 0
635 -696 -2 0
-635 696 0
-635 2 0
636 -635 -810 0
-636 635 0
-636 810 0
637 -940 -634 0
-637 940 0
-637 634 0
638 -44 -28 0
-638 44 0
-638 28 0
639 -638 -746 0
-639 638 0
-639 746 0
640 -941 -637 0
-640 941 0
-640 637 0
641 -40 -32 0
-641 40 0
-641 32 0
642 -641 -709 0
-642 641 0
-642 709 0
643 -942 -640 0
-643 942 0
-643 640 0
644 -927 -25 0
-644 927 0
-644 25 0
645 -644 -742 0
-645 644 0
-645 742 0
646 -943 -643 0
-646 943 0
-646 643 0
647 -729 -16 0
-647 729 0
-647 16 0
648 -647 -46 0
-648 647 0
-648 46 0
649 -944 -646 0
-649 944 0
-649 646 0
650 -30 -716 0
-650 30 0
-650 716 0
651 -650 -4 0
-651 650 0
-651 4 0
652 -945 -649 0
-652 945 0
-652 649 0
653 -28 -22 0
-653 28 0
-653 22 0
654 -653 -755 0
-654 653 0
-654 755 0
655 -946 -652 0
-655 946 0
-655 652 0
656 -548 -20 0
-656 548 0
-656 20 0
657 -947 -655 0
-657 947 0
-657 655 0
658 -744 -24 0
-658 744 0
-658 24 0
659 -658 -23 0
-659 658 0
-659 23 0
660 -948 -657 0
-660 948 0
-660 657 0
661 -43 -24 0
-661 43 0
-661 24 0
662 -661 -742 0
-662 661 0
-662 742 0
663 -949 -660 0
-663 949 0
-663 660 0
664 -726 -16 0
-664 726 0
-664 16 0
665 -664 -700 0
-665 664 0
-665 700 0
666 -950 -663 0
-666 950 0
-666 663 0
667 -745 -17 0
-667 745 0
-667 17 0
668 -667 -731 0
-668 667 0
-668 731 0
669 -951 -666 0
-669 951 0
-669 666 0
670 -39 -726 0
-670 39 0
-670 726 0
671 -670 -810 0
-671 670 0
-671 810 0
672 -952 -669 0
-672 952 0
-672 669 0
673 -704 -694 0
-673 704 0
-673 694 0
674 -673 -697 0
-674 673 0
-674 697 0
675 -953 -672 0
-675 953 0
-675 672 0
676 -736 -706 0
-676 736 0
-676 706 0
677 -676 -810 0
-677 676 0
-677 810 0
678 -954 -675 0
-678 954 0
-678 675 0
679 -718 -704 0
-679 718 0
-679 704 0
680 -679 -19 0
-680 679 0
-680 19 0
681 -955 -678 0
-681 955 0
-681 678 0
682 -833 -14 0
-682 833 0
-682 14 0
683 -682 -21 0
-683 682 0
-683 21 0
684 -956 -681 0
-684 956 0
-684 681 0
685 -757 -718 0
-685 757 0
-685 718 0
686 -685 -810 0
-686 685 0
-686 810 0
687 -957 -684 0
-687 957 0
-687 684 0
688 -744 -10 0
-688 744 0
-688 10 0
689 -688 -11 0
-689 688 0
-689 11 0
690 -958 -687 0
-690 958 0
-690 687 0
691 -785 -694 0
-691 785 0
-691 694 0
692 -691 -47 0
-692 691 0
-692 47 0
693 -959 -690 0
-693 959 0
-693 690 0
-694 -2 0
694 2 0
-695 -1 0
695 1 0
-696 -3 0
696 3 0
-697 -5 0
697 5 0
-698 -54 0
698 54 0
-699 -52 0
699 52 0
-700 -8 0
700 8 0
-701 -7 0
701 7 0
-702 -9 0
702 9 0
-703 -57 0
703 57 0
-704 -11 0
704 11 0
-705 -10 0
705 10 0
-706 -12 0
706 12 0
-707 -60 0
707 60 0
-708 -14 0
708 14 0
-709 -15 0
709 15 0
-710 -63 0
710 63 0
-711 -16 0
711 16 0
-712 -66 0
712 66 0
-713 -19 0
713 19 0
-714 -69 0
714 69 0
-715 -72 0
715 72 0
-716 -22 0
716 22 0
-717 -75 0
717 75 0
-718 -25 0
718 25 0
-719 -24 0
719 24 0
-720 -78 0
720 78 0
-721 -81 0
721 81 0
-722 -84 0
722 84 0
-723 -30 0
723 30 0
-724 -87 0
724 87 0
-725 -90 0
725 90 0
-726 -32 0
726 32 0
-727 -93 0
727 93 0
-728 -34 0
728 34 0
-729 -33 0
729 33 0
-730 -96 0
730 96 0
-731 -21 0
731 21 0
-732 -99 0
732 99 0
-733 -37 0
733 37 0
-734 -102 0
734 102 0
-735 -13 0
735 13 0
-736 -39 0
736 39 0
-737 -105 0
737 105 0
-738 -29 0
738 29 0
-739 -108 0
739 108 0
-740 -111 0
740 111 0
-741 -114 0
741 114 0
-742 -27 0
742 27 0
-743 -117 0
743 117 0
-744 -35 0
744 35 0
-745 -18 0
745 18 0
-746 -41 0
746 41 0
-747 -120 0
747 120 0
-748 -23 0
748 23 0
-749 -123 0
749 123 0
-750 -126 0
750 126 0
-751 -129 0
751 129 0
-752 -132 0
752 132 0
-753 -135 0
753 135 0
-754 -138 0
754 138 0
-755 -36 0
755 36 0
-756 -141 0
756 141 0
-757 -28 0
757 28 0
-758 -144 0
758 144 0
-759 -42 0
759 42 0
-760 -147 0
760 147 0
-761 -150 0
761 150 0
-762 -153 0
762 153 0
-763 -156 0
763 156 0
-764 -159 0
764 159 0
-765 -162 0
765 162 0
-766 -165 0
766 165 0
-767 -168 0
767 168 0
-768 -170 0
768 170 0
-769 -173 0
769 173 0
-770 -176 0
770 176 0
-771 -179 0
771 179 0
-772 -20 0
772 20 0
-773 -182 0
773 182 0
-774 -185 0
774 185 0
-775 -188 0
775 188 0
-776 -26 0
776 26 0
-777 -191 0
777 191 0
-778 -45 0
778 45 0
-779 -194 0
779 194 0
-780 -197 0
780 197 0
-781 -200 0
781 200 0
-782 -203 0
782 203 0
-783 -206 0
783 206 0
-784 -209 0
784 209 0
-785 -43 0
785 43 0
-786 -212 0
786 212 0
-787 -49 0
787 49 0
-788 -215 0
788 215 0
-789 -218 0
789 218 0
-790 -46 0
790 46 0
-791 -221 0
791 221 0
-792 -224 0
792 224 0
-793 -227 0
793 227 0
-794 -230 0
794 230 0
-795 -233 0
795 233 0
-796 -236 0
796 236 0
-797 -239 0
797 239 0
-798 -48 0
798 48 0
-799 -242 0
799 242 0
-800 -4 0
800 4 0
-801 -245 0
801 245 0
-802 -248 0
802 248 0
-803 -251 0
803 251 0
-804 -254 0
804 254 0
-805 -257 0
805 257 0
-806 -260 0
806 260 0
-807 -44 0
807 44 0
-808 -263 0
808 263 0
-809 -266 0
809 266 0
-810 -50 0
810 50 0
-811 -269 0
811 269 0
-812 -272 0
812 272 0
-813 -275 0
813 275 0
-814 -278 0
814 278 0
-815 -281 0
815 281 0
-816 -284 0
816 284 0
-817 -287 0
817 287 0
-818 -290 0
818 290 0
-819 -293 0
819 293 0
-820 -296 0
820 296 0
-821 -299 0
821 299 0
-822 -302 0
822 302 0
-823 -305 0
823 305 0
-824 -308 0
824 308 0
-825 -311 0
825 311 0
-826 -314 0
826 314 0
-827 -317 0
827 317 0
-828 -17 0
828 17 0
-829 -320 0
829 320 0
-830 -323 0
830 323 0
-831 -326 0
831 326 0
-832 -329 0
832 329 0
-833 -47 0
833 47 0
-834 -40 0
834 40 0
-835 -332 0
835 332 0
-836 -335 0
836 335 0
-837 -338 0
837 338 0
-838 -341 0
838 341 0
-839 -344 0
839 344 0
-840 -347 0
840 347 0
-841 -350 0
841 350 0
-842 -353 0
842 353 0
-843 -356 0
843 356 0
-844 -359 0
844 359 0
-845 -362 0
845 362 0
-846 -365 0
846 365 0
-847 -368 0
847 368 0
-848 -371 0
848 371 0
-849 -374 0
849 374 0
-850 -377 0
850 377 0
-851 -380 0
851 380 0
-852 -382 0
852 382 0
-853 -385 0
853 385 0
-854 -6 0
854 6 0
-855 -388 0
855 388 0
-856 -391 0
856 391 0
-857 -394 0
857 394 0
-858 -397 0
858 397 0
-859 -400 0
859 400 0
-860 -403 0
860 403 0
-861 -406 0
861 406 0
-862 -409 0
862 409 0
-863 -412 0
863 412 0
-864 -415 0
864 415 0
-865 -418 0
865 418 0
-866 -421 0
866 421 0
-867 -424 0
867 424 0
-868 -427 0
868 427 0
-869 -430 0
869 430 0
-870 -433 0
870 433 0
-871 -436 0
871 436 0
-872 -439 0
872 439 0
-873 -442 0
873 442 0
-874 -445 0
874 445 0
-875 -448 0
875 448 0
-876 -451 0
876 451 0
-877 -453 0
877 453 0
-878 -456 0
878 456 0
-879 -459 0
879 459 0
-880 -462 0
880 462 0
-881 -464 0
881 464 0
-882 -467 0
882 467 0
-883 -470 0
883 470 0
-884 -473 0
884 473 0
-885 -476 0
885 476 0
-886 -479 0
886 479 0
-887 -481 0
887 481 0
-888 -484 0
888 484 0
-889 -487 0
889 487 0
-890 -490 0
890 490 0
-891 -493 0
891 493 0
-892 -496 0
892 496 0
-893 -499 0
893 499 0
-894 -502 0
894 502 0
-895 -505 0
895 505 0
-896 -508 0
896 508 0
-897 -511 0
897 511 0
-898 -514 0
898 514 0
-899 -517 0
899 517 0
-900 -520 0
900 520 0
-901 -523 0
901 523 0
-902 -526 0
902 526 0
-903 -529 0
903 529 0
-904 -532 0
904 532 0
-905 -535 0
905 535 0
-906 -538 0
906 538 0
-907 -541 0
907 541 0
-908 -543 0
908 543 0
-909 -546 0
909 546 0
-910 -549 0
910 549 0
-911 -552 0
911 552 0
-912 -555 0
912 555 0
-913 -558 0
913 558 0
-914 -561 0
914 561 0
-915 -564 0
915 564 0
-916 -567 0
916 567 0
-917 -570 0
917 570 0
-918 -573 0
918 573 0
-919 -576 0
919 576 0
-920 -579 0
920 579 0
-921 -582 0
921 582 0
-922 -585 0
922 585 0
-923 -588 0
923 588 0
-924 -591 0
924 591 0
-925 -594 0
925 594 0
-926 -597 0
926 597 0
-927 -38 0
927 38 0
-928 -600 0
928 600 0
-929 -603 0
929 603 0
-930 -606 0
930 606 0
-931 -609 0
931 609 0
-932 -612 0
932 612 0
-933 -615 0
933 615 0
-934 -618 0
934 618 0
-935 -621 0
935 621 0
-936 -624 0
936 624 0
-937 -627 0
937 627 0
-938 -630 0
938 630 0
-939 -633 0
939 633 0
-940 -636 0
940 636 0
-941 -639 0
941 639 0
-942 -642 0
942 642 0
-943 -645 0
943 645 0
-944 -648 0
944 648 0
-945 -651 0
945 651 0
-946 -654 0
946 654 0
-947 -656 0
947 656 0
-948 -659 0
948 659 0
-949 -662 0
949 662 0
-950 -665 0
950 665 0
-951 -668 0
951 668 0
-952 -671 0
952 671 0
-953 -674 0
953 674 0
-954 -677 0
954 677 0
-955 -680 0
955 680 0
-956 -683 0
956 683 0
-957 -686 0
957 686 0
-958 -689 0
958 689 0
-959 -692 0
959 692 0
693 0
